words_hard_train/1733.qaiger
aag 90 20 0 1 70
2
4
12
16
24
26
30
34
38
42
52
68
70
82
84
92
110
112
142
150
180
6 2 5
8 3 4
10 7 9
14 10 12
18 16 3
20 17 2
22 19 21
28 25 27
32 28 31
36 32 35
40 36 39
44 41 42
46 40 43
48 45 47
50 22 49
54 52 3
56 53 2
58 55 57
60 37 38
62 61 41
64 58 63
66 51 65
72 68 71
74 69 70
76 73 75
78 76 26
80 79 33
86 83 85
88 82 84
90 87 89
94 92 24
96 95 31
98 91 97
100 94 30
102 99 101
104 77 27
106 103 105
108 80 107
114 110 113
116 111 112
118 115 117
120 33 34
122 121 37
124 118 123
126 108 125
128 119 122
130 127 129
132 59 62
134 130 133
136 66 135
138 23 48
140 137 139
144 142 3
146 143 2
148 145 147
152 47 150
154 46 151
156 153 155
158 148 157
160 141 159
162 160 154
164 15 163
166 149 153
168 167 155
170 168 161
172 11 13
174 171 173
176 164 175
178 14 162
180 177 179
i0 1 x1[7]
i1 2 y2[7]
i2 2 y1[7]
i3 2 y2[5]
i4 2 y1[0]
i5 2 y1[2]
i6 2 y1[1]
i7 2 y1[3]
i8 2 y1[4]
i9 2 y1[5]
i10 2 y2[4]
i11 1 x1[5]
i12 2 y2[2]
i13 1 x1[4]
i14 2 y2[1]
i15 1 x1[3]
i16 1 x1[6]
i17 2 y2[3]
i18 2 y2[6]
i19 2 y1[6]
o0 bv[0]
c
simplified
  >=
    xor
      or
        2 y2
        1
      >> 3
        1 x1
    2 y1
