words_hard_train/1733.qaiger.qdimacs
p cnf 90 211
a 1 34 41 46 55 0
e 2 3 4 5 6 7 8 9 10 11 12 13 14 15 16 17 18 19 20 21 22 23 24 25 26 27 28 29 30 31 32 33 35 36 37 38 39 40 42 43 44 45 47 48 49 50 51 52 53 54 56 57 58 59 60 61 62 63 64 65 66 67 68 69 70 71 72 73 74 75 76 77 78 79 80 81 82 83 84 85 86 87 88 89 90 0
-1 2 3 0
1 -3 0
-2 -3 0
1 -2 4 0
-1 -4 0
2 -4 0
3 4 5 0
-3 -5 0
-4 -5 0
-5 -6 7 0
5 -7 0
6 -7 0
-8 1 9 0
8 -9 0
-1 -9 0
8 -1 10 0
-8 -10 0
1 -10 0
9 10 11 0
-9 -11 0
-10 -11 0
12 13 14 0
-12 -14 0
-13 -14 0
-14 15 16 0
14 -16 0
-15 -16 0
-16 17 18 0
16 -18 0
-17 -18 0
-18 19 20 0
18 -20 0
-19 -20 0
20 -21 22 0
-20 -22 0
21 -22 0
-20 21 23 0
20 -23 0
-21 -23 0
22 23 24 0
-22 -24 0
-23 -24 0
-11 24 25 0
11 -25 0
-24 -25 0
-26 1 27 0
26 -27 0
-1 -27 0
26 -1 28 0
-26 -28 0
1 -28 0
27 28 29 0
-27 -29 0
-28 -29 0
18 -19 30 0
-18 -30 0
19 -30 0
30 20 31 0
-30 -31 0
-20 -31 0
-29 31 32 0
29 -32 0
-31 -32 0
25 32 33 0
-25 -33 0
-32 -33 0
-34 35 36 0
34 -36 0
-35 -36 0
34 -35 37 0
-34 -37 0
35 -37 0
36 37 38 0
-36 -38 0
-37 -38 0
-38 -13 39 0
38 -39 0
13 -39 0
39 16 40 0
-39 -40 0
-16 -40 0
41 42 43 0
-41 -43 0
-42 -43 0
-41 -42 44 0
41 -44 0
42 -44 0
43 44 45 0
-43 -45 0
-44 -45 0
-46 -12 47 0
46 -47 0
12 -47 0
47 15 48 0
-47 -48 0
-15 -48 0
45 48 49 0
-45 -49 0
-48 -49 0
-47 -15 50 0
47 -50 0
15 -50 0
49 50 51 0
-49 -51 0
-50 -51 0
38 13 52 0
-38 -52 0
-13 -52 0
51 52 53 0
-51 -53 0
-52 -53 0
-40 53 54 0
40 -54 0
-53 -54 0
-55 56 57 0
55 -57 0
-56 -57 0
55 -56 58 0
-55 -58 0
56 -58 0
57 58 59 0
-57 -59 0
-58 -59 0
16 -17 60 0
-16 -60 0
17 -60 0
60 18 61 0
-60 -61 0
-18 -61 0
-59 61 62 0
59 -62 0
-61 -62 0
-54 62 63 0
54 -63 0
-62 -63 0
59 -61 64 0
-59 -64 0
61 -64 0
63 64 65 0
-63 -65 0
-64 -65 0
29 -31 66 0
-29 -66 0
31 -66 0
-65 66 67 0
65 -67 0
-66 -67 0
-33 67 68 0
33 -68 0
-67 -68 0
11 -24 69 0
-11 -69 0
24 -69 0
68 69 70 0
-68 -70 0
-69 -70 0
-71 1 72 0
71 -72 0
-1 -72 0
71 -1 73 0
-71 -73 0
1 -73 0
72 73 74 0
-72 -74 0
-73 -74 0
23 -75 76 0
-23 -76 0
75 -76 0
-23 75 77 0
23 -77 0
-75 -77 0
76 77 78 0
-76 -78 0
-77 -78 0
-74 78 79 0
74 -79 0
-78 -79 0
70 79 80 0
-70 -80 0
-79 -80 0
-80 -77 81 0
80 -81 0
77 -81 0
7 81 82 0
-7 -82 0
-81 -82 0
74 76 83 0
-74 -83 0
-76 -83 0
83 77 84 0
-83 -84 0
-77 -84 0
-84 80 85 0
84 -85 0
-80 -85 0
5 6 86 0
-5 -86 0
-6 -86 0
85 86 87 0
-85 -87 0
-86 -87 0
-82 87 88 0
82 -88 0
-87 -88 0
-7 -81 89 0
7 -89 0
81 -89 0
88 89 90 0
-88 -90 0
-89 -90 0
90 0
